language Essence 1.3

letting blksize_delta be function(1 --> 7, 2 --> 7, 3 --> 7, 4 --> 7, 5 --> 7, 6 --> 7)
letting maxcars be function(1 --> 10, 2 --> 10, 3 --> 10, 4 --> 10, 5 --> 10, 6 --> 10)
letting n_cars be 265
letting n_classes be 80
letting n_options be 6
letting quantity be
        function(1 --> 3, 2 --> 4, 3 --> 5, 4 --> 20, 5 --> 5, 6 --> 6, 7 --> 3, 8 --> 3, 9 --> 3, 10 --> 3, 11 --> 3,
                 12 --> 3, 13 --> 3, 14 --> 3, 15 --> 3, 16 --> 3, 17 --> 3, 18 --> 3, 19 --> 3, 20 --> 3, 21 --> 3,
                 22 --> 3, 23 --> 3, 24 --> 3, 25 --> 3, 26 --> 3, 27 --> 3, 28 --> 3, 29 --> 3, 30 --> 3, 31 --> 3,
                 32 --> 3, 33 --> 3, 34 --> 3, 35 --> 3, 36 --> 3, 37 --> 3, 38 --> 3, 39 --> 3, 40 --> 3, 41 --> 3,
                 42 --> 3, 43 --> 3, 44 --> 3, 45 --> 3, 46 --> 3, 47 --> 3, 48 --> 3, 49 --> 3, 50 --> 3, 51 --> 3,
                 52 --> 3, 53 --> 3, 54 --> 3, 55 --> 3, 56 --> 3, 57 --> 3, 58 --> 3, 59 --> 3, 60 --> 3, 61 --> 3,
                 62 --> 3, 63 --> 3, 64 --> 3, 65 --> 3, 66 --> 3, 67 --> 3, 68 --> 3, 69 --> 3, 70 --> 3, 71 --> 3,
                 72 --> 3, 73 --> 3, 74 --> 3, 75 --> 3, 76 --> 3, 77 --> 3, 78 --> 3, 79 --> 3, 80 --> 3)
letting usage be
        relation((1, 1), (2, 3), (2, 6), (3, 1), (3, 5), (4, 1), (4, 2), (4, 4), (5, 1), (5, 5), (5, 6), (6, 1), (6, 5),
                 (7, 2), (7, 4), (8, 3), (8, 4), (9, 4), (9, 5), (10, 1), (10, 5), (11, 1), (11, 3), (12, 5), (13, 2),
                 (13, 4), (13, 6), (14, 2), (14, 3), (14, 5), (15, 2), (15, 3), (15, 6), (16, 5), (17, 2), (17, 4),
                 (17, 5), (18, 1), (18, 2), (18, 3), (18, 4), (18, 5), (18, 6), (19, 2), (19, 3), (20, 4), (21, 1),
                 (21, 3), (21, 4), (21, 6), (22, 1), (22, 2), (22, 3), (22, 4), (23, 2), (23, 3), (23, 4), (23, 6),
                 (24, 2), (24, 3), (24, 5), (25, 2), (25, 3), (25, 4), (25, 6), (26, 2), (26, 4), (27, 3), (27, 4),
                 (28, 1), (28, 2), (28, 4), (28, 6), (29, 3), (29, 6), (30, 1), (30, 3), (30, 6), (31, 1), (31, 3),
                 (31, 5), (32, 1), (32, 2), (32, 3), (32, 5), (32, 6), (33, 2), (33, 4), (33, 6), (34, 1), (35, 1),
                 (35, 2), (35, 3), (35, 4), (35, 5), (36, 1), (36, 5), (37, 1), (38, 1), (38, 5), (39, 6), (40, 4),
                 (40, 6), (41, 3), (41, 4), (41, 5), (41, 6), (42, 3), (43, 1), (43, 4), (43, 5), (44, 3), (44, 6),
                 (45, 1), (45, 5), (46, 1), (46, 2), (46, 5), (47, 2), (47, 4), (47, 6), (48, 1), (48, 6), (49, 5),
                 (50, 5), (51, 1), (52, 6), (53, 1), (53, 2), (53, 3), (53, 4), (54, 1), (54, 3), (54, 4), (54, 5),
                 (55, 3), (55, 4), (55, 5), (55, 6), (56, 1), (56, 5), (57, 1), (57, 2), (57, 4), (57, 6), (58, 6),
                 (59, 5), (60, 2), (60, 3), (60, 4), (61, 1), (61, 6), (62, 1), (62, 2), (62, 4), (62, 5), (62, 6),
                 (63, 2), (63, 6), (64, 2), (64, 3), (65, 3), (65, 6), (66, 2), (67, 6), (68, 1), (68, 2), (68, 4),
                 (68, 6), (69, 1), (69, 5), (70, 1), (70, 2), (70, 3), (70, 6), (71, 4), (71, 5), (71, 6), (72, 1),
                 (72, 2), (73, 3), (74, 1), (75, 1), (75, 2), (75, 5), (76, 1), (76, 2), (76, 3), (76, 5), (76, 6),
                 (77, 2), (77, 3), (77, 4), (78, 1), (79, 1), (79, 4), (79, 6), (80, 1), (80, 2), (80, 4), (80, 5),
                 (80, 6))
$ Visualisation for usage
$  1  1
$  2  3
$  2  6
$  3  1
$  3  5
$  4  1
$  4  2
$  4  4
$  5  1
$  5  5
$  5  6
$  6  1
$  6  5
$  7  2
$  7  4
$  8  3
$  8  4
$  9  4
$  9  5
$ 10  1
$ 10  5
$ 11  1
$ 11  3
$ 12  5
$ 13  2
$ 13  4
$ 13  6
$ 14  2
$ 14  3
$ 14  5
$ 15  2
$ 15  3
$ 15  6
$ 16  5
$ 17  2
$ 17  4
$ 17  5
$ 18  1
$ 18  2
$ 18  3
$ 18  4
$ 18  5
$ 18  6
$ 19  2
$ 19  3
$ 20  4
$ 21  1
$ 21  3
$ 21  4
$ 21  6
$ 22  1
$ 22  2
$ 22  3
$ 22  4
$ 23  2
$ 23  3
$ 23  4
$ 23  6
$ 24  2
$ 24  3
$ 24  5
$ 25  2
$ 25  3
$ 25  4
$ 25  6
$ 26  2
$ 26  4
$ 27  3
$ 27  4
$ 28  1
$ 28  2
$ 28  4
$ 28  6
$ 29  3
$ 29  6
$ 30  1
$ 30  3
$ 30  6
$ 31  1
$ 31  3
$ 31  5
$ 32  1
$ 32  2
$ 32  3
$ 32  5
$ 32  6
$ 33  2
$ 33  4
$ 33  6
$ 34  1
$ 35  1
$ 35  2
$ 35  3
$ 35  4
$ 35  5
$ 36  1
$ 36  5
$ 37  1
$ 38  1
$ 38  5
$ 39  6
$ 40  4
$ 40  6
$ 41  3
$ 41  4
$ 41  5
$ 41  6
$ 42  3
$ 43  1
$ 43  4
$ 43  5
$ 44  3
$ 44  6
$ 45  1
$ 45  5
$ 46  1
$ 46  2
$ 46  5
$ 47  2
$ 47  4
$ 47  6
$ 48  1
$ 48  6
$ 49  5
$ 50  5
$ 51  1
$ 52  6
$ 53  1
$ 53  2
$ 53  3
$ 53  4
$ 54  1
$ 54  3
$ 54  4
$ 54  5
$ 55  3
$ 55  4
$ 55  5
$ 55  6
$ 56  1
$ 56  5
$ 57  1
$ 57  2
$ 57  4
$ 57  6
$ 58  6
$ 59  5
$ 60  2
$ 60  3
$ 60  4
$ 61  1
$ 61  6
$ 62  1
$ 62  2
$ 62  4
$ 62  5
$ 62  6
$ 63  2
$ 63  6
$ 64  2
$ 64  3
$ 65  3
$ 65  6
$ 66  2
$ 67  6
$ 68  1
$ 68  2
$ 68  4
$ 68  6
$ 69  1
$ 69  5
$ 70  1
$ 70  2
$ 70  3
$ 70  6
$ 71  4
$ 71  5
$ 71  6
$ 72  1
$ 72  2
$ 73  3
$ 74  1
$ 75  1
$ 75  2
$ 75  5
$ 76  1
$ 76  2
$ 76  3
$ 76  5
$ 76  6
$ 77  2
$ 77  3
$ 77  4
$ 78  1
$ 79  1
$ 79  4
$ 79  6
$ 80  1
$ 80  2
$ 80  4
$ 80  5
$ 80  6

